1 51 2
-686 -106 -602 -836 -182 -429 -501 -97 -146 -418 -991 -129 -567 -271 -612 -716 -498 -168 -978 -635 -763 -55 -594 -183 -537 -46 -636 -494 -84 -623 -865 -92 -642 -536 -508 -416 -875 -455 -419 -111 -44 -606 -944 -606 -306 -834 -765 -58 -867 -512 0 
-395 -827 -440 -187 -848 -598 -458 -858 -947 -488 -100 -862 -479 -704 -328 -309 -546 -902 -116 -326 -327 -959 -476 -825 -486 -945 -287 -605 -976 -371 -116 -952 -293 -365 -396 -672 -60 -463 -540 -902 -997 -371 -30 -494 -620 -138 -312 -889 -194 -449 0 
19 337 138 728 643 702 342 309 858 884 9 189 327 35 602 479 5 359 148 919 730 461 218 988 926 163 110 888 847 923 641 979 475 287 216 740 976 613 284 796 463 527 127 482 68 910 529 40 122 273 1 
11917 
